50
9205

294 941
559 243
162 340
294 467
583 791
294 729
530 168
254 628
397 572
411 825
653 59
703 399
567 199
9 742
562 239
94 489
266 427
320 931
860 18
581 909
828 394
859 407
265 912
673 667
570 550
191 831
6 565
514 778
451 923
550 677
912 224
829 775
527 620
977 697
373 340
671 435
712 230
204 510
993 589
431 692
399 457
872 623
182 3
225 653
938 879
845 565
458 570
157 559
689 324
620 28
